outputs/case_300.model.txt
failure_to_confirm_suitability = False
failed_to_complete_recruitment_report = False
paid_commission_to_non_actual_recruit = False
employed_unqualified_recruit = False
spread_false_information = False
collected_improper_fees = False
unauthorized_delegation = False
failed_to_cancel_license_in_time = False
license_cancellation_delay = False
concealed_important_contract_info = False
misleading_promotion = False
reported_false_at_license_application = False
illegal_insurance_payment = False
criminal_conviction = False
damage_insurance_image = False
employ_unqualified_recruit = False
unauthorized_advertisement = False
induced_contract_termination_or_loan = False
improper_fee_collection = False
failure_to_report_to_association = False
unauthorized_business_scope = False
caused_illegal_insurance_payment = False
contract_with_unregistered_insurer = False
damaged_insurance_image = False
sold_unapproved_foreign_policy = False
sale_of_unapproved_foreign_policy = False
used_unauthorized_advertisement = False
convicted_of_criminal_offense = False
coerce_or_induce_unfairly = False
failed_to_confirm_suitability = False
induced_policy_surrender_or_loan = False
has_conflict_of_interest = False
unauthorized_business_suspension = False
reported_false_or_incomplete_data = False
misappropriated_insurance_funds = False
incomplete_recruitment_report = False
unauthorized_use_of_license = False
improper_commission_payment = False
other_violations = False
used_unfair_means_to_coerce_or_induce = False
failure_to_reappoint_broker = False
operated_outside_license_scope = False
misconduct_reported_false = False
failed_to_report_to_association = False
misappropriate_insurance_funds = False
disrupt_financial_order = False
false_or_incomplete_report = False
induce_policy_surrender_or_loan = False
penalty = False
conflict_of_interest = False
used_misleading_promotion = False
improper_document_handling = False
conceal_important_contract_info = False
induce_contract_termination_or_loan = False
failed_to_reappoint_broker = False
license_used_by_others = False